language Essence 1.3

letting blksize_delta be
        function(1 --> 10, 2 --> 10, 3 --> 10, 4 --> 10, 5 --> 10, 6 --> 10, 7 --> 10, 8 --> 10, 9 --> 10, 10 --> 10,
                 11 --> 10, 12 --> 10, 13 --> 10, 14 --> 10, 15 --> 10, 16 --> 10, 17 --> 10, 18 --> 10, 19 --> 10,
                 20 --> 10, 21 --> 10, 22 --> 10, 23 --> 10, 24 --> 10, 25 --> 10, 26 --> 10, 27 --> 10, 28 --> 10,
                 29 --> 10, 30 --> 10, 31 --> 10, 32 --> 10, 33 --> 10, 34 --> 10, 35 --> 10, 36 --> 10, 37 --> 10,
                 38 --> 10, 39 --> 10, 40 --> 10, 41 --> 10, 42 --> 10, 43 --> 10, 44 --> 10, 45 --> 10, 46 --> 10)
letting maxcars be
        function(1 --> 9, 2 --> 10, 3 --> 9, 4 --> 9, 5 --> 10, 6 --> 10, 7 --> 9, 8 --> 9, 9 --> 9, 10 --> 9, 11 --> 9,
                 12 --> 9, 13 --> 10, 14 --> 10, 15 --> 9, 16 --> 9, 17 --> 10, 18 --> 9, 19 --> 9, 20 --> 9, 21 --> 9,
                 22 --> 9, 23 --> 9, 24 --> 9, 25 --> 9, 26 --> 9, 27 --> 9, 28 --> 10, 29 --> 9, 30 --> 9, 31 --> 9,
                 32 --> 9, 33 --> 9, 34 --> 10, 35 --> 10, 36 --> 10, 37 --> 9, 38 --> 9, 39 --> 9, 40 --> 9, 41 --> 9,
                 42 --> 9, 43 --> 9, 44 --> 9, 45 --> 9, 46 --> 9)
letting n_cars be 130
letting n_classes be 17
letting n_options be 46
letting quantity be
        function(1 --> 17, 2 --> 7, 3 --> 8, 4 --> 7, 5 --> 7, 6 --> 7, 7 --> 7, 8 --> 7, 9 --> 7, 10 --> 7, 11 --> 7,
                 12 --> 7, 13 --> 7, 14 --> 7, 15 --> 7, 16 --> 7, 17 --> 7)
letting usage be
        relation((1, 3), (1, 11), (1, 12), (1, 20), (1, 22), (1, 24), (1, 28), (1, 31), (1, 34), (1, 41), (1, 42),
                 (1, 44), (2, 3), (2, 6), (2, 11), (2, 14), (2, 16), (2, 18), (2, 20), (2, 21), (2, 26), (2, 40),
                 (2, 42), (3, 2), (3, 3), (3, 5), (3, 8), (3, 12), (3, 13), (3, 16), (3, 24), (3, 25), (3, 28), (3, 29),
                 (3, 39), (3, 42), (3, 44), (3, 45), (4, 4), (4, 8), (4, 15), (4, 17), (4, 23), (4, 24), (4, 34),
                 (4, 35), (4, 38), (4, 39), (4, 46), (5, 2), (5, 17), (5, 26), (5, 29), (5, 34), (5, 37), (5, 38),
                 (5, 41), (5, 43), (6, 8), (6, 17), (6, 29), (6, 35), (6, 37), (6, 44), (6, 46), (7, 1), (7, 2), (7, 6),
                 (7, 7), (7, 8), (7, 12), (7, 17), (7, 20), (7, 23), (7, 30), (7, 31), (7, 37), (7, 43), (8, 6), (8, 7),
                 (8, 12), (8, 14), (8, 18), (8, 25), (8, 26), (8, 31), (8, 34), (8, 39), (8, 40), (9, 1), (9, 3),
                 (9, 6), (9, 9), (9, 20), (9, 22), (9, 23), (9, 32), (9, 34), (9, 35), (9, 41), (10, 5), (10, 6),
                 (10, 10), (10, 14), (10, 19), (10, 26), (10, 29), (10, 31), (10, 32), (10, 37), (10, 39), (10, 40),
                 (10, 42), (10, 44), (11, 9), (11, 10), (11, 11), (11, 14), (11, 28), (11, 29), (11, 35), (11, 38),
                 (11, 40), (11, 46), (12, 2), (12, 3), (12, 4), (12, 5), (12, 11), (12, 14), (12, 19), (12, 23),
                 (12, 25), (12, 34), (12, 37), (12, 43), (13, 8), (13, 16), (13, 17), (13, 20), (13, 23), (13, 24),
                 (13, 27), (13, 35), (13, 36), (13, 38), (14, 2), (14, 3), (14, 10), (14, 11), (14, 16), (14, 19),
                 (14, 20), (14, 21), (14, 27), (14, 29), (14, 30), (14, 35), (14, 37), (14, 38), (14, 41), (15, 3),
                 (15, 10), (15, 12), (15, 19), (15, 25), (15, 31), (15, 33), (15, 45), (16, 6), (16, 17), (16, 33),
                 (17, 6), (17, 7), (17, 12), (17, 14), (17, 31), (17, 38), (17, 45), (17, 46))
$ Visualisation for usage
$  1  3
$  1 11
$  1 12
$  1 20
$  1 22
$  1 24
$  1 28
$  1 31
$  1 34
$  1 41
$  1 42
$  1 44
$  2  3
$  2  6
$  2 11
$  2 14
$  2 16
$  2 18
$  2 20
$  2 21
$  2 26
$  2 40
$  2 42
$  3  2
$  3  3
$  3  5
$  3  8
$  3 12
$  3 13
$  3 16
$  3 24
$  3 25
$  3 28
$  3 29
$  3 39
$  3 42
$  3 44
$  3 45
$  4  4
$  4  8
$  4 15
$  4 17
$  4 23
$  4 24
$  4 34
$  4 35
$  4 38
$  4 39
$  4 46
$  5  2
$  5 17
$  5 26
$  5 29
$  5 34
$  5 37
$  5 38
$  5 41
$  5 43
$  6  8
$  6 17
$  6 29
$  6 35
$  6 37
$  6 44
$  6 46
$  7  1
$  7  2
$  7  6
$  7  7
$  7  8
$  7 12
$  7 17
$  7 20
$  7 23
$  7 30
$  7 31
$  7 37
$  7 43
$  8  6
$  8  7
$  8 12
$  8 14
$  8 18
$  8 25
$  8 26
$  8 31
$  8 34
$  8 39
$  8 40
$  9  1
$  9  3
$  9  6
$  9  9
$  9 20
$  9 22
$  9 23
$  9 32
$  9 34
$  9 35
$  9 41
$ 10  5
$ 10  6
$ 10 10
$ 10 14
$ 10 19
$ 10 26
$ 10 29
$ 10 31
$ 10 32
$ 10 37
$ 10 39
$ 10 40
$ 10 42
$ 10 44
$ 11  9
$ 11 10
$ 11 11
$ 11 14
$ 11 28
$ 11 29
$ 11 35
$ 11 38
$ 11 40
$ 11 46
$ 12  2
$ 12  3
$ 12  4
$ 12  5
$ 12 11
$ 12 14
$ 12 19
$ 12 23
$ 12 25
$ 12 34
$ 12 37
$ 12 43
$ 13  8
$ 13 16
$ 13 17
$ 13 20
$ 13 23
$ 13 24
$ 13 27
$ 13 35
$ 13 36
$ 13 38
$ 14  2
$ 14  3
$ 14 10
$ 14 11
$ 14 16
$ 14 19
$ 14 20
$ 14 21
$ 14 27
$ 14 29
$ 14 30
$ 14 35
$ 14 37
$ 14 38
$ 14 41
$ 15  3
$ 15 10
$ 15 12
$ 15 19
$ 15 25
$ 15 31
$ 15 33
$ 15 45
$ 16  6
$ 16 17
$ 16 33
$ 17  6
$ 17  7
$ 17 12
$ 17 14
$ 17 31
$ 17 38
$ 17 45
$ 17 46

